problems/csplib-prob015/SchursLemma-models/noch/O2/lingeling/model_1_4-7-16-solution000001.solution
language Essence 1.3

letting boxes be partition({1, 2}, {3, 7, 8, 16}, {4, 11}, {5, 10, 12}, {6, 13}, {9, 14}, {15})
